n= 34;
k= 4;
maxsize= 34;
nML= 6;
nCL= 6;
deg= [  16,    9,   10,    6,    3,    4,    4,    4,    5,    2,    3,    1,    2,    5,    2,    2,    2,    2,    2,    3,    2,    2,    2,    5,    3,    3,    2,    4,    3,    4,    4,    6,   12,   17] ;
ML= [|    26,      9, 
|     19,     19, 
|      1,     18, 
|     21,     32, 
|     32,     23, 
|     11,      1|] ;
CL= [|     26,     13, 
|      5,     15, 
|     13,     21, 
|     11,     29, 
|     25,      1, 
|     24,      4|] ;
A= [|    0,    1,    1,    1,    1,    1,    1,    1,    1,    0,    1,    1,    1,    1,    0,    0,    0,    1,    0,    1,    0,    1,    0,    0,    0,    0,    0,    0,    0,    0,    0,    1,    0,    0, 
|    1,    0,    1,    1,    0,    0,    0,    1,    0,    0,    0,    0,    0,    1,    0,    0,    0,    1,    0,    1,    0,    1,    0,    0,    0,    0,    0,    0,    0,    0,    1,    0,    0,    0, 
|    1,    1,    0,    1,    0,    0,    0,    1,    1,    1,    0,    0,    0,    1,    0,    0,    0,    0,    0,    0,    0,    0,    0,    0,    0,    0,    0,    1,    1,    0,    0,    0,    1,    0, 
|    1,    1,    1,    0,    0,    0,    0,    1,    0,    0,    0,    0,    1,    1,    0,    0,    0,    0,    0,    0,    0,    0,    0,    0,    0,    0,    0,    0,    0,    0,    0,    0,    0,    0, 
|    1,    0,    0,    0,    0,    0,    1,    0,    0,    0,    1,    0,    0,    0,    0,    0,    0,    0,    0,    0,    0,    0,    0,    0,    0,    0,    0,    0,    0,    0,    0,    0,    0,    0, 
|    1,    0,    0,    0,    0,    0,    1,    0,    0,    0,    1,    0,    0,    0,    0,    0,    1,    0,    0,    0,    0,    0,    0,    0,    0,    0,    0,    0,    0,    0,    0,    0,    0,    0, 
|    1,    0,    0,    0,    1,    1,    0,    0,    0,    0,    0,    0,    0,    0,    0,    0,    1,    0,    0,    0,    0,    0,    0,    0,    0,    0,    0,    0,    0,    0,    0,    0,    0,    0, 
|    1,    1,    1,    1,    0,    0,    0,    0,    0,    0,    0,    0,    0,    0,    0,    0,    0,    0,    0,    0,    0,    0,    0,    0,    0,    0,    0,    0,    0,    0,    0,    0,    0,    0, 
|    1,    0,    1,    0,    0,    0,    0,    0,    0,    0,    0,    0,    0,    0,    0,    0,    0,    0,    0,    0,    0,    0,    0,    0,    0,    0,    0,    0,    0,    0,    1,    0,    1,    1, 
|    0,    0,    1,    0,    0,    0,    0,    0,    0,    0,    0,    0,    0,    0,    0,    0,    0,    0,    0,    0,    0,    0,    0,    0,    0,    0,    0,    0,    0,    0,    0,    0,    0,    1, 
|    1,    0,    0,    0,    1,    1,    0,    0,    0,    0,    0,    0,    0,    0,    0,    0,    0,    0,    0,    0,    0,    0,    0,    0,    0,    0,    0,    0,    0,    0,    0,    0,    0,    0, 
|    1,    0,    0,    0,    0,    0,    0,    0,    0,    0,    0,    0,    0,    0,    0,    0,    0,    0,    0,    0,    0,    0,    0,    0,    0,    0,    0,    0,    0,    0,    0,    0,    0,    0, 
|    1,    0,    0,    1,    0,    0,    0,    0,    0,    0,    0,    0,    0,    0,    0,    0,    0,    0,    0,    0,    0,    0,    0,    0,    0,    0,    0,    0,    0,    0,    0,    0,    0,    0, 
|    1,    1,    1,    1,    0,    0,    0,    0,    0,    0,    0,    0,    0,    0,    0,    0,    0,    0,    0,    0,    0,    0,    0,    0,    0,    0,    0,    0,    0,    0,    0,    0,    0,    1, 
|    0,    0,    0,    0,    0,    0,    0,    0,    0,    0,    0,    0,    0,    0,    0,    0,    0,    0,    0,    0,    0,    0,    0,    0,    0,    0,    0,    0,    0,    0,    0,    0,    1,    1, 
|    0,    0,    0,    0,    0,    0,    0,    0,    0,    0,    0,    0,    0,    0,    0,    0,    0,    0,    0,    0,    0,    0,    0,    0,    0,    0,    0,    0,    0,    0,    0,    0,    1,    1, 
|    0,    0,    0,    0,    0,    1,    1,    0,    0,    0,    0,    0,    0,    0,    0,    0,    0,    0,    0,    0,    0,    0,    0,    0,    0,    0,    0,    0,    0,    0,    0,    0,    0,    0, 
|    1,    1,    0,    0,    0,    0,    0,    0,    0,    0,    0,    0,    0,    0,    0,    0,    0,    0,    0,    0,    0,    0,    0,    0,    0,    0,    0,    0,    0,    0,    0,    0,    0,    0, 
|    0,    0,    0,    0,    0,    0,    0,    0,    0,    0,    0,    0,    0,    0,    0,    0,    0,    0,    0,    0,    0,    0,    0,    0,    0,    0,    0,    0,    0,    0,    0,    0,    1,    1, 
|    1,    1,    0,    0,    0,    0,    0,    0,    0,    0,    0,    0,    0,    0,    0,    0,    0,    0,    0,    0,    0,    0,    0,    0,    0,    0,    0,    0,    0,    0,    0,    0,    0,    1, 
|    0,    0,    0,    0,    0,    0,    0,    0,    0,    0,    0,    0,    0,    0,    0,    0,    0,    0,    0,    0,    0,    0,    0,    0,    0,    0,    0,    0,    0,    0,    0,    0,    1,    1, 
|    1,    1,    0,    0,    0,    0,    0,    0,    0,    0,    0,    0,    0,    0,    0,    0,    0,    0,    0,    0,    0,    0,    0,    0,    0,    0,    0,    0,    0,    0,    0,    0,    0,    0, 
|    0,    0,    0,    0,    0,    0,    0,    0,    0,    0,    0,    0,    0,    0,    0,    0,    0,    0,    0,    0,    0,    0,    0,    0,    0,    0,    0,    0,    0,    0,    0,    0,    1,    1, 
|    0,    0,    0,    0,    0,    0,    0,    0,    0,    0,    0,    0,    0,    0,    0,    0,    0,    0,    0,    0,    0,    0,    0,    0,    0,    1,    0,    1,    0,    1,    0,    0,    1,    1, 
|    0,    0,    0,    0,    0,    0,    0,    0,    0,    0,    0,    0,    0,    0,    0,    0,    0,    0,    0,    0,    0,    0,    0,    0,    0,    1,    0,    1,    0,    0,    0,    1,    0,    0, 
|    0,    0,    0,    0,    0,    0,    0,    0,    0,    0,    0,    0,    0,    0,    0,    0,    0,    0,    0,    0,    0,    0,    0,    1,    1,    0,    0,    0,    0,    0,    0,    1,    0,    0, 
|    0,    0,    0,    0,    0,    0,    0,    0,    0,    0,    0,    0,    0,    0,    0,    0,    0,    0,    0,    0,    0,    0,    0,    0,    0,    0,    0,    0,    0,    1,    0,    0,    0,    1, 
|    0,    0,    1,    0,    0,    0,    0,    0,    0,    0,    0,    0,    0,    0,    0,    0,    0,    0,    0,    0,    0,    0,    0,    1,    1,    0,    0,    0,    0,    0,    0,    0,    0,    1, 
|    0,    0,    1,    0,    0,    0,    0,    0,    0,    0,    0,    0,    0,    0,    0,    0,    0,    0,    0,    0,    0,    0,    0,    0,    0,    0,    0,    0,    0,    0,    0,    1,    0,    1, 
|    0,    0,    0,    0,    0,    0,    0,    0,    0,    0,    0,    0,    0,    0,    0,    0,    0,    0,    0,    0,    0,    0,    0,    1,    0,    0,    1,    0,    0,    0,    0,    0,    1,    1, 
|    0,    1,    0,    0,    0,    0,    0,    0,    1,    0,    0,    0,    0,    0,    0,    0,    0,    0,    0,    0,    0,    0,    0,    0,    0,    0,    0,    0,    0,    0,    0,    0,    1,    1, 
|    1,    0,    0,    0,    0,    0,    0,    0,    0,    0,    0,    0,    0,    0,    0,    0,    0,    0,    0,    0,    0,    0,    0,    0,    1,    1,    0,    0,    1,    0,    0,    0,    1,    1, 
|    0,    0,    1,    0,    0,    0,    0,    0,    1,    0,    0,    0,    0,    0,    1,    1,    0,    0,    1,    0,    1,    0,    1,    1,    0,    0,    0,    0,    0,    1,    1,    1,    0,    1, 
|    0,    0,    0,    0,    0,    0,    0,    0,    1,    1,    0,    0,    0,    1,    1,    1,    0,    0,    1,    1,    1,    0,    1,    1,    0,    0,    1,    1,    1,    1,    1,    1,    1,    0|] ;
W= [| -16410,  769, -256, 3846, 6923, 5897, 5897, 5897, 4872, -2051, 6923, 8974, 7949, 4872, -2051, -2051, -2051, 7949, -2051, 6923, -2051, 7949, -2051, -5128, -3077, -3077, -2051, -4103, -3077, -4103, -4103, 3846, -12308, -17436, 
|  769, -5192, 4231, 6538, -1731, -2308, -2308, 7692, -2885, -1154, -1731, -577, -1154, 7115, -1154, -1154, -1154, 8846, -1154, 8269, -1154, 8846, -1154, -2885, -1731, -1731, -1154, -2308, -1731, -2308, 7692, -3462, -6923, -9808, 
| -256, 4231, -6410, 6154, -1923, -2564, -2564, 7436, 6795, 8718, -1923, -641, -1282, 6795, -1282, -1282, -1282, -1282, -1282, -1923, -1282, -1282, -1282, -3205, -1923, -1923, -1282, 7436, 8077, -2564, -2564, -3846, 2308, -10897, 
| 3846, 6538, 6154, -2308, -1154, -1538, -1538, 8462, -1923, -769, -1154, -385, 9231, 8077, -769, -769, -769, -769, -769, -1154, -769, -769, -769, -1923, -1154, -1154, -769, -1538, -1154, -1538, -1538, -2308, -4615, -6538, 
| 6923, -1731, -1923, -1154, -577, -769, 9231, -769, -962, -385, 9423, -192, -385, -962, -385, -385, -385, -385, -385, -577, -385, -385, -385, -962, -577, -577, -385, -769, -577, -769, -769, -1154, -2308, -3269, 
| 5897, -2308, -2564, -1538, -769, -1026, 8974, -1026, -1282, -513, 9231, -256, -513, -1282, -513, -513, 9487, -513, -513, -769, -513, -513, -513, -1282, -769, -769, -513, -1026, -769, -1026, -1026, -1538, -3077, -4359, 
| 5897, -2308, -2564, -1538, 9231, 8974, -1026, -1026, -1282, -513, -769, -256, -513, -1282, -513, -513, 9487, -513, -513, -769, -513, -513, -513, -1282, -769, -769, -513, -1026, -769, -1026, -1026, -1538, -3077, -4359, 
| 5897, 7692, 7436, 8462, -769, -1026, -1026, -1026, -1282, -513, -769, -256, -513, -1282, -513, -513, -513, -513, -513, -769, -513, -513, -513, -1282, -769, -769, -513, -1026, -769, -1026, -1026, -1538, -3077, -4359, 
| 4872, -2885, 6795, -1923, -962, -1282, -1282, -1282, -1603, -641, -962, -321, -641, -1603, -641, -641, -641, -641, -641, -962, -641, -641, -641, -1603, -962, -962, -641, -1282, -962, -1282, 8718, -1923, 6154, 4551, 
| -2051, -1154, 8718, -769, -385, -513, -513, -513, -641, -256, -385, -128, -256, -641, -256, -256, -256, -256, -256, -385, -256, -256, -256, -641, -385, -385, -256, -513, -385, -513, -513, -769, -1538, 7821, 
| 6923, -1731, -1923, -1154, 9423, 9231, -769, -769, -962, -385, -577, -192, -385, -962, -385, -385, -385, -385, -385, -577, -385, -385, -385, -962, -577, -577, -385, -769, -577, -769, -769, -1154, -2308, -3269, 
| 8974, -577, -641, -385, -192, -256, -256, -256, -321, -128, -192,  -64, -128, -321, -128, -128, -128, -128, -128, -192, -128, -128, -128, -321, -192, -192, -128, -256, -192, -256, -256, -385, -769, -1090, 
| 7949, -1154, -1282, 9231, -385, -513, -513, -513, -641, -256, -385, -128, -256, -641, -256, -256, -256, -256, -256, -385, -256, -256, -256, -641, -385, -385, -256, -513, -385, -513, -513, -769, -1538, -2179, 
| 4872, 7115, 6795, 8077, -962, -1282, -1282, -1282, -1603, -641, -962, -321, -641, -1603, -641, -641, -641, -641, -641, -962, -641, -641, -641, -1603, -962, -962, -641, -1282, -962, -1282, -1282, -1923, -3846, 4551, 
| -2051, -1154, -1282, -769, -385, -513, -513, -513, -641, -256, -385, -128, -256, -641, -256, -256, -256, -256, -256, -385, -256, -256, -256, -641, -385, -385, -256, -513, -385, -513, -513, -769, 8462, 7821, 
| -2051, -1154, -1282, -769, -385, -513, -513, -513, -641, -256, -385, -128, -256, -641, -256, -256, -256, -256, -256, -385, -256, -256, -256, -641, -385, -385, -256, -513, -385, -513, -513, -769, 8462, 7821, 
| -2051, -1154, -1282, -769, -385, 9487, 9487, -513, -641, -256, -385, -128, -256, -641, -256, -256, -256, -256, -256, -385, -256, -256, -256, -641, -385, -385, -256, -513, -385, -513, -513, -769, -1538, -2179, 
| 7949, 8846, -1282, -769, -385, -513, -513, -513, -641, -256, -385, -128, -256, -641, -256, -256, -256, -256, -256, -385, -256, -256, -256, -641, -385, -385, -256, -513, -385, -513, -513, -769, -1538, -2179, 
| -2051, -1154, -1282, -769, -385, -513, -513, -513, -641, -256, -385, -128, -256, -641, -256, -256, -256, -256, -256, -385, -256, -256, -256, -641, -385, -385, -256, -513, -385, -513, -513, -769, 8462, 7821, 
| 6923, 8269, -1923, -1154, -577, -769, -769, -769, -962, -385, -577, -192, -385, -962, -385, -385, -385, -385, -385, -577, -385, -385, -385, -962, -577, -577, -385, -769, -577, -769, -769, -1154, -2308, 6731, 
| -2051, -1154, -1282, -769, -385, -513, -513, -513, -641, -256, -385, -128, -256, -641, -256, -256, -256, -256, -256, -385, -256, -256, -256, -641, -385, -385, -256, -513, -385, -513, -513, -769, 8462, 7821, 
| 7949, 8846, -1282, -769, -385, -513, -513, -513, -641, -256, -385, -128, -256, -641, -256, -256, -256, -256, -256, -385, -256, -256, -256, -641, -385, -385, -256, -513, -385, -513, -513, -769, -1538, -2179, 
| -2051, -1154, -1282, -769, -385, -513, -513, -513, -641, -256, -385, -128, -256, -641, -256, -256, -256, -256, -256, -385, -256, -256, -256, -641, -385, -385, -256, -513, -385, -513, -513, -769, 8462, 7821, 
| -5128, -2885, -3205, -1923, -962, -1282, -1282, -1282, -1603, -641, -962, -321, -641, -1603, -641, -641, -641, -641, -641, -962, -641, -641, -641, -1603, -962, 9038, -641, 8718, -962, 8718, -1282, -1923, 6154, 4551, 
| -3077, -1731, -1923, -1154, -577, -769, -769, -769, -962, -385, -577, -192, -385, -962, -385, -385, -385, -385, -385, -577, -385, -385, -385, -962, -577, 9423, -385, 9231, -577, -769, -769, 8846, -2308, -3269, 
| -3077, -1731, -1923, -1154, -577, -769, -769, -769, -962, -385, -577, -192, -385, -962, -385, -385, -385, -385, -385, -577, -385, -385, -385, 9038, 9423, -577, -385, -769, -577, -769, -769, 8846, -2308, -3269, 
| -2051, -1154, -1282, -769, -385, -513, -513, -513, -641, -256, -385, -128, -256, -641, -256, -256, -256, -256, -256, -385, -256, -256, -256, -641, -385, -385, -256, -513, -385, 9487, -513, -769, -1538, 7821, 
| -4103, -2308, 7436, -1538, -769, -1026, -1026, -1026, -1282, -513, -769, -256, -513, -1282, -513, -513, -513, -513, -513, -769, -513, -513, -513, 8718, 9231, -769, -513, -1026, -769, -1026, -1026, -1538, -3077, 5641, 
| -3077, -1731, 8077, -1154, -577, -769, -769, -769, -962, -385, -577, -192, -385, -962, -385, -385, -385, -385, -385, -577, -385, -385, -385, -962, -577, -577, -385, -769, -577, -769, -769, 8846, -2308, 6731, 
| -4103, -2308, -2564, -1538, -769, -1026, -1026, -1026, -1282, -513, -769, -256, -513, -1282, -513, -513, -513, -513, -513, -769, -513, -513, -513, 8718, -769, -769, 9487, -1026, -769, -1026, -1026, -1538, 6923, 5641, 
| -4103, 7692, -2564, -1538, -769, -1026, -1026, -1026, 8718, -513, -769, -256, -513, -1282, -513, -513, -513, -513, -513, -769, -513, -513, -513, -1282, -769, -769, -513, -1026, -769, -1026, -1026, -1538, 6923, 5641, 
| 3846, -3462, -3846, -2308, -1154, -1538, -1538, -1538, -1923, -769, -1154, -385, -769, -1923, -769, -769, -769, -769, -769, -1154, -769, -769, -769, -1923, 8846, 8846, -769, -1538, 8846, -1538, -1538, -2308, 5385, 3462, 
| -12308, -6923, 2308, -4615, -2308, -3077, -3077, -3077, 6154, -1538, -2308, -769, -1538, -3846, 8462, 8462, -1538, -1538, 8462, -2308, 8462, -1538, 8462, 6154, -2308, -2308, -1538, -3077, -2308, 6923, 6923, 5385, -9231, -3077, 
| -17436, -9808, -10897, -6538, -3269, -4359, -4359, -4359, 4551, 7821, -3269, -1090, -2179, 4551, 7821, 7821, -2179, -2179, 7821, 6731, 7821, -2179, 7821, 4551, -3269, -3269, 7821, 5641, 6731, 5641, 5641, 3462, -3077, -18526|] ;